\ Model Transportation Problem with Emission Costs
\ LP format - for model browsing. Use MPS format to capture full model detail.
Minimize
  - 2 x[0,0] - 2 x[0,1] - 2 x[0,2] - 2 x[0,3] - 2 x[0,4] - 2 x[0,5]
   - 2 x[0,6] - 2 x[0,7] - 2 x[0,8] - 2 x[1,0] - 2 x[1,1] - 2 x[1,2]
   - 2 x[1,3] - 2 x[1,4] - 2 x[1,5] - 2 x[1,6] - 2 x[1,7] - 2 x[1,8]
   - 2 x[2,0] - 2 x[2,1] - 2 x[2,2] - 2 x[2,3] - 2 x[2,4] - 2 x[2,5]
   - 2 x[2,6] - 2 x[2,7] - 2 x[2,8] - 2 x[3,0] - 2 x[3,1] - 2 x[3,2]
   - 2 x[3,3] - 2 x[3,4] - 2 x[3,5] - 2 x[3,6] - 2 x[3,7] - 2 x[3,8]
   - 2 x[4,0] - 2 x[4,1] - 2 x[4,2] - 2 x[4,3] - 2 x[4,4] - 2 x[4,5]
   - 2 x[4,6] - 2 x[4,7] - 2 x[4,8] - 2 x[5,0] - 2 x[5,1] - 2 x[5,2]
   - 2 x[5,3] - 2 x[5,4] - 2 x[5,5] - 2 x[5,6] - 2 x[5,7] - 2 x[5,8]
   - 2 x[6,0] - 2 x[6,1] - 2 x[6,2] - 2 x[6,3] - 2 x[6,4] - 2 x[6,5]
   - 2 x[6,6] - 2 x[6,7] - 2 x[6,8] - 2 x[7,0] - 2 x[7,1] - 2 x[7,2]
   - 2 x[7,3] - 2 x[7,4] - 2 x[7,5] - 2 x[7,6] - 2 x[7,7] - 2 x[7,8]
Subject To
 collection_point_0: x[0,0] + x[0,1] + x[0,2] + x[0,3] + x[0,4] + x[0,5]
   + x[0,6] + x[0,7] + x[0,8] <= 10
 collection_point_1: x[1,0] + x[1,1] + x[1,2] + x[1,3] + x[1,4] + x[1,5]
   + x[1,6] + x[1,7] + x[1,8] <= 10
 collection_point_2: x[2,0] + x[2,1] + x[2,2] + x[2,3] + x[2,4] + x[2,5]
   + x[2,6] + x[2,7] + x[2,8] <= 10
 collection_point_3: x[3,0] + x[3,1] + x[3,2] + x[3,3] + x[3,4] + x[3,5]
   + x[3,6] + x[3,7] + x[3,8] <= 10
 collection_point_4: x[4,0] + x[4,1] + x[4,2] + x[4,3] + x[4,4] + x[4,5]
   + x[4,6] + x[4,7] + x[4,8] <= 10
 collection_point_5: x[5,0] + x[5,1] + x[5,2] + x[5,3] + x[5,4] + x[5,5]
   + x[5,6] + x[5,7] + x[5,8] <= 10
 collection_point_6: x[6,0] + x[6,1] + x[6,2] + x[6,3] + x[6,4] + x[6,5]
   + x[6,6] + x[6,7] + x[6,8] <= 10
 collection_point_7: x[7,0] + x[7,1] + x[7,2] + x[7,3] + x[7,4] + x[7,5]
   + x[7,6] + x[7,7] + x[7,8] <= 10
 facility_0: x[0,0] + x[1,0] + x[2,0] + x[3,0] + x[4,0] + x[5,0] + x[6,0]
   + x[7,0] <= 18.88888888888889
 facility_1: x[0,1] + x[1,1] + x[2,1] + x[3,1] + x[4,1] + x[5,1] + x[6,1]
   + x[7,1] <= 18.88888888888889
 facility_2: x[0,2] + x[1,2] + x[2,2] + x[3,2] + x[4,2] + x[5,2] + x[6,2]
   + x[7,2] <= 18.88888888888889
 facility_3: x[0,3] + x[1,3] + x[2,3] + x[3,3] + x[4,3] + x[5,3] + x[6,3]
   + x[7,3] <= 18.88888888888889
 facility_4: x[0,4] + x[1,4] + x[2,4] + x[3,4] + x[4,4] + x[5,4] + x[6,4]
   + x[7,4] <= 18.88888888888889
 facility_5: x[0,5] + x[1,5] + x[2,5] + x[3,5] + x[4,5] + x[5,5] + x[6,5]
   + x[7,5] <= 18.88888888888889
 facility_6: x[0,6] + x[1,6] + x[2,6] + x[3,6] + x[4,6] + x[5,6] + x[6,6]
   + x[7,6] <= 18.88888888888889
 facility_7: x[0,7] + x[1,7] + x[2,7] + x[3,7] + x[4,7] + x[5,7] + x[6,7]
   + x[7,7] <= 18.88888888888889
 facility_8: x[0,8] + x[1,8] + x[2,8] + x[3,8] + x[4,8] + x[5,8] + x[6,8]
   + x[7,8] <= 18.88888888888889
Bounds
End
